200
200
159
158
158
157
157
156
155
154
153
152
152
151
149
149
149
146
145
142
141
141
140
139
138
137
137
137
136
136
135
135
135
135
134
134
131
131
131
130
128
128
127
126
126
125
125
124
124
123
122
122
121
120
120
118
116
113
111
110
110
109
108
108
107
107
107
107
106
106
104
104
103
102
101
101
98
98
98
97
97
96
96
96
96
95
94
94
93
92
90
88
88
87
87
86
85
85
85
80
79
79
79
79
78
78
77
77
77
76
74
74
74
73
71
70
68
67
66
65
65
64
64
64
63
63
63
62
62
61
61
61
60
60
59
59
59
59
59
58
58
58
57
55
54
54
54
53
53
53
52
51
49
48
48
47
47
46
45
45
44
43
43
43
43
42
41
40
40
40
40
39
39
38
38
38
36
36
35
34
34
33
33
32
32
30
30
30
28
28
28
28
26
25
25
23
21
21
21
21
20
20
